%Chk=oh_h2o.irc_ts_001.chk
%NProc=2
# b3lyp/6-31G(d,p) scf=xqc freq

IRC net coordinate: -1.70553 scf energy: -152.160842709

0	1
O	0.172571     -1.149049     -0.252786
H	-0.021121     -1.281406     0.694978
H	0.648504     0.746252     -0.132042
O	-0.161818     1.119892     0.248275
H	-0.785677     1.058490     -0.489427

